num_offers = 35;
num_halls = 10;
start=[30,57,31,16,12,9,36,4,23,10,88,12,16,22,35,44,36,15,54,87,14,38,24,23,93,48,51,8,30,3,6,36,46,32,57];
end=[70,64,84,71,36,80,58,85,68,55,97,13,79,79,95,69,41,72,87,100,56,69,91,90,100,97,69,65,39,10,12,76,60,37,77];
price=[2943,725,4624,5243,1845,6639,519,3797,2708,2059,981,47,5700,2379,3429,829,555,2865,1701,596,1742,2333,5923,5491,350,1288,1149,1949,377,492,277,1529,957,114,884];
requirement=[663,554,373,424,851,444,246,361,419,575,253,593,629,760,218,415,302,549,901,206,717,651,648,735,320,839,612,299,732,586,633,472,772,508,281];
capacity=[638,839,702,662,849,416,460,989,935,504];
